p cnf 332 113
a 274 273 272 271 270 269 276 275 290 289 288 287 286 285 292 291 0
e 280 279 282 281 299 298 301 300 304 303 302 0
a 278 277 284 283 294 293 297 296 295 306 305 0
e 307 308 309 310 311 312 313 314 315 316 317 318 319 320 321 322 323 324 325 326 327 328 329 330 331 332 0
  331  332 0
  -332  -330  -328  -306  -287  -285 0
  -332  -330  -328  -306  -305  -287 0
  -332  -330  -328  -306  -305  -285 0
  -332  -330  -328  -326  285  287  306 0
  -332  -330  -328  -326  287  305  306 0
  -332  -330  -328  -326  285  305  306 0
  -332  -330  -328  -326  305  306 0
  -332  -330  -328  -325  287  306 0
  -332  -330  -328  -325  285  306 0
  -332  -330  -328  306  325  326 0
  -332  -330  -327  285  287  289  305 0
  -332  -330  -327  -305  -289  285  287 0
  -332  -330  -327  -289  -287  285  305 0
  -332  -330  -327  -305  -287  285  289 0
  -332  -330  -327  -289  -285  287  305 0
  -332  -330  -327  -305  -285  287  289 0
  -332  -330  -327  -287  -285  289  305 0
  -332  -330  -327  -305  -289  -287  -285 0
  -332  -330  327  328 0
  -332  -329  291  292  305  306 0
  -332  -329  -306  -292  291  305 0
  -332  -329  -305  -291  292  306 0
  -332  -329  -306  -305  -292  -291 0
  -332  329  330 0
  -331  -300  291 0
  -331  -291  300 0
  -331  -301  292 0
  -331  -292  301 0
  -331  -302  285  287 0
  -331  -302  -287  -285 0
  -331  -287  285  302 0
  -331  -285  287  302 0
  -331  -289  300  302 0
  -331  -302  -300  -289 0
  -331  -300  289  302 0
  -331  -302  289  300 0
  -331  -303  285 0
  -331  -303  287 0
  -331  -287  -285  303 0
  -331  -304  302 0
  -331  -304  300 0
  -331  -302  -300  304 0
  -331  -301  303  304 0
  -331  -303  301 0
  -331  -304  301 0
  323  324 0
  -324  -298  291 0
  -324  -291  298 0
  -324  -299  292 0
  -324  -292  299 0
  -324  -298  -287  -285  289 0
  -324  -289  -287  -285  298 0
  -324  -298  -289  -285  287 0
  -324  -285  287  289  298 0
  -324  -298  -289  -287  285 0
  -324  -287  285  289  298 0
  -324  -298  285  287  289 0
  -324  -289  285  287  298 0
  -324  -322  -299  285  287 0
  -324  -322  -299  287  298 0
  -324  -322  -299  285  298 0
  -324  -322  -299  298 0
  -324  -321  -299  287 0
  -324  -321  -299  285 0
  -324  -299  321  322 0
  -324  -287  -285  299 0
  -324  -298  -287  299 0
  -324  -298  -285  299 0
  -308  -279  275 0
  -308  -275  279 0
  -308  -279  276 0
  -308  -276  279 0
  -307  275  276  277 0
  -307  -277  -276  275  277 0
  -307  -277  -275  276  277 0
  -307  -277  -276  -275 0
  307  308 0
  -309  -276  281 0
  -309  -281  276 0
  -309  -275  281 0
  -309  -281  275 0
  -310  275  276  283 0
  -310  -283  -276  275  283 0
  -310  -283  -275  276  283 0
  -310  -283  -276  -275 0
  309  310 0
  -323  319  320 0
  -323  -319  -294  -293  -292  -291 0
  -323  -319  -293  -291  292  294 0
  -323  -319  -294  -292  291  293 0
  -323  -319  291  292  293  294 0
  -323  -320  317  318 0
  -323  -320  -318  -296  -294 0
  -323  -320  -318  -297  -294 0
  -323  -320  -318  294  296  297 0
  -323  -320  -317  315  316 0
  -323  -320  -317  -316  -297  -295  -293 0
  -323  -320  -317  -316  295  297 0
  -323  -320  -317  -316  293  297 0
  -323  -320  -317  -315  313  314 0
  -323  -320  -317  -315  -314  -296  -287  -285 0
  -323  -320  -317  -315  -314  285  296 0
  -323  -320  -317  -315  -314  287  296 0
  -323  -320  -317  -315  -313  311  312 0
  -323  -320  -317  -315  -313  -311  -295  -287  285 0
  -323  -320  -317  -315  -313  -311  -295  -285  287 0
  -323  -320  -317  -315  -313  -311  285  287  295 0
  -323  -320  -317  -315  -313  -311  -287  -285  295 0
  -323  -320  -317  -315  -313  -312  -295  -293  289 0
  -323  -320  -317  -315  -313  -312  289  293  295 0
  -323  -320  -317  -315  -313  -312  -295  -289  293 0
  -323  -320  -317  -315  -313  -312  -293  -289  295 0
